100
504 803 667 1103 834 585 811 856 690 832 846 813 868 793 825 1002 860 615 540 797 616 660 707 866 647 746 1006 608 877 900 573 788 484 853 942 630 591 630 640 1169 932 1034 957 798 669 625 467 1051 552 717 654 388 559 555 1104 783 959 668 507 855 986 831 821 825 868 852 832 828 799 686 510 671 575 740 510 675 996 636 826 1022 1140 654 909 799 1162 653 814 625 599 476 767 954 906 904 649 873 565 853 1008 632 
13727
509 883 229 569 706 639 114 727 491 481 681 948 687 941 350 253 573 40 124 384 660 951 739 329 146 593 658 816 638 717 779 289 430 851 937 289 159 260 930 248 656 833 892 60 278 741 297 967 86 249 354 614 836 290 893 857 158 869 206 504 799 758 431 580 780 788 583 641 32 653 252 709 129 368 440 314 287 854 460 594 512 239 719 751 708 670 269 832 137 356 960 651 398 893 407 477 552 805 881 850 
